Maximize
 0
Subject To
 epc_0!1: +14.227151321986199 y_1!1_2!1 -48.367964830352726 y_1!2_2!1 +14.986032798995666 y_1!3_2!1 +8.153192510177874 y_1!4_2!1 -28.878405666927122 y_1!1_2!2 +89.67520569696768 y_1!2_2!2 -52.85799576233507 y_1!3_2!2 +34.154732946765705 y_1!4_2!2 +29.430798186737263 y_1!1_2!3 -69.60175055682704 y_1!2_2!3 +47.065049988007445 y_1!3_2!3 -24.150813617983985 y_1!4_2!3 -57.84258302037502 y_1!1_2!4 -58.67913924776202 y_1!2_2!4 -82.93412616574741 y_1!3_2!4 -4.981033204576988 y_1!4_2!4 + lambda_0!1 - mu_0 = 0
 epc_0!2: -40.527407194010934 y_1!1_2!1 -84.85269959401234 y_1!2_2!1 +60.387098327791165 y_1!3_2!1 +14.224364038066284 y_1!4_2!1 -94.29027941611025 y_1!1_2!2 +36.76328727567574 y_1!2_2!2 -19.430054820757945 y_1!3_2!2 +91.46467249021563 y_1!4_2!2 +22.761789578550065 y_1!1_2!3 +88.23978654114333 y_1!2_2!3 -38.998769138012676 y_1!3_2!3 +80.18502156823769 y_1!4_2!3 +31.516130019603963 y_1!1_2!4 +81.93572564033971 y_1!2_2!4 -18.4375787870446 y_1!3_2!4 +97.99320037385087 y_1!4_2!4 + lambda_0!2 - mu_0 = 0
 epc_0!3: +32.05686210873924 y_1!1_2!1 +47.790470743294435 y_1!2_2!1 -11.746211576166417 y_1!3_2!1 -67.70167943282604 y_1!4_2!1 -7.025846134033586 y_1!1_2!2 -61.30825794150461 y_1!2_2!2 -44.97123257043445 y_1!3_2!2 +3.0596796778223307 y_1!4_2!2 +86.53097011889474 y_1!1_2!3 +65.40044062480081 y_1!2_2!3 +47.204150065275996 y_1!3_2!3 +50.40990736031344 y_1!4_2!3 -34.63837868644757 y_1!1_2!4 +38.61401845467677 y_1!2_2!4 -24.597375631343795 y_1!3_2!4 +92.68921811074796 y_1!4_2!4 + lambda_0!3 - mu_0 = 0
 epc_0!4: -35.07300938719831 y_1!1_2!1 +54.78875681344667 y_1!2_2!1 +41.52705376353413 y_1!3_2!1 +96.12916959746988 y_1!4_2!1 -91.81008296977879 y_1!1_2!2 -15.065250282533029 y_1!2_2!2 +39.555724541963286 y_1!3_2!2 +65.21667276427473 y_1!4_2!2 +95.9664936957968 y_1!1_2!3 -20.56759005715621 y_1!2_2!3 -71.45213264303717 y_1!3_2!3 -19.297519094922237 y_1!4_2!3 -27.415682233210077 y_1!1_2!4 +37.61757603217126 y_1!2_2!4 -49.7184359325223 y_1!3_2!4 +77.72968974885788 y_1!4_2!4 + lambda_0!4 - mu_0 = 0
 dc_0: x_0!1 + x_0!2 + x_0!3 + x_0!4 = 1
 bc_0!1: lambda_0!1 +296.88807977550766 x_0!1 <= 296.88807977550766
 bc_0!2: lambda_0!2 +296.88807977550766 x_0!2 <= 296.88807977550766
 bc_0!3: lambda_0!3 +296.88807977550766 x_0!3 <= 296.88807977550766
 bc_0!4: lambda_0!4 +296.88807977550766 x_0!4 <= 296.88807977550766
 sum_0!1: y_1!1_2!1 - x_1!1 - x_2!1 >= -1
 idk_0!1!1: y_1!1_2!1 - x_1!1 <= 0
 idk_0!1!2: y_1!1_2!1 - x_2!1 <= 0
 sum_0!2: y_1!2_2!1 - x_1!2 - x_2!1 >= -1
 idk_0!2!1: y_1!2_2!1 - x_1!2 <= 0
 idk_0!2!2: y_1!2_2!1 - x_2!1 <= 0
 sum_0!3: y_1!3_2!1 - x_1!3 - x_2!1 >= -1
 idk_0!3!1: y_1!3_2!1 - x_1!3 <= 0
 idk_0!3!2: y_1!3_2!1 - x_2!1 <= 0
 sum_0!4: y_1!4_2!1 - x_1!4 - x_2!1 >= -1
 idk_0!4!1: y_1!4_2!1 - x_1!4 <= 0
 idk_0!4!2: y_1!4_2!1 - x_2!1 <= 0
 sum_0!5: y_1!1_2!2 - x_1!1 - x_2!2 >= -1
 idk_0!5!1: y_1!1_2!2 - x_1!1 <= 0
 idk_0!5!2: y_1!1_2!2 - x_2!2 <= 0
 sum_0!6: y_1!2_2!2 - x_1!2 - x_2!2 >= -1
 idk_0!6!1: y_1!2_2!2 - x_1!2 <= 0
 idk_0!6!2: y_1!2_2!2 - x_2!2 <= 0
 sum_0!7: y_1!3_2!2 - x_1!3 - x_2!2 >= -1
 idk_0!7!1: y_1!3_2!2 - x_1!3 <= 0
 idk_0!7!2: y_1!3_2!2 - x_2!2 <= 0
 sum_0!8: y_1!4_2!2 - x_1!4 - x_2!2 >= -1
 idk_0!8!1: y_1!4_2!2 - x_1!4 <= 0
 idk_0!8!2: y_1!4_2!2 - x_2!2 <= 0
 sum_0!9: y_1!1_2!3 - x_1!1 - x_2!3 >= -1
 idk_0!9!1: y_1!1_2!3 - x_1!1 <= 0
 idk_0!9!2: y_1!1_2!3 - x_2!3 <= 0
 sum_0!10: y_1!2_2!3 - x_1!2 - x_2!3 >= -1
 idk_0!10!1: y_1!2_2!3 - x_1!2 <= 0
 idk_0!10!2: y_1!2_2!3 - x_2!3 <= 0
 sum_0!11: y_1!3_2!3 - x_1!3 - x_2!3 >= -1
 idk_0!11!1: y_1!3_2!3 - x_1!3 <= 0
 idk_0!11!2: y_1!3_2!3 - x_2!3 <= 0
 sum_0!12: y_1!4_2!3 - x_1!4 - x_2!3 >= -1
 idk_0!12!1: y_1!4_2!3 - x_1!4 <= 0
 idk_0!12!2: y_1!4_2!3 - x_2!3 <= 0
 sum_0!13: y_1!1_2!4 - x_1!1 - x_2!4 >= -1
 idk_0!13!1: y_1!1_2!4 - x_1!1 <= 0
 idk_0!13!2: y_1!1_2!4 - x_2!4 <= 0
 sum_0!14: y_1!2_2!4 - x_1!2 - x_2!4 >= -1
 idk_0!14!1: y_1!2_2!4 - x_1!2 <= 0
 idk_0!14!2: y_1!2_2!4 - x_2!4 <= 0
 sum_0!15: y_1!3_2!4 - x_1!3 - x_2!4 >= -1
 idk_0!15!1: y_1!3_2!4 - x_1!3 <= 0
 idk_0!15!2: y_1!3_2!4 - x_2!4 <= 0
 sum_0!16: y_1!4_2!4 - x_1!4 - x_2!4 >= -1
 idk_0!16!1: y_1!4_2!4 - x_1!4 <= 0
 idk_0!16!2: y_1!4_2!4 - x_2!4 <= 0
 epc_1!1: -70.40977343166958 y_0!1_2!1 +20.209213553661215 y_0!2_2!1 -26.715702108747024 y_0!3_2!1 -53.44085640851481 y_0!4_2!1 -20.85959744244572 y_0!1_2!2 +13.281323047966922 y_0!2_2!2 +55.65945088568944 y_0!3_2!2 -71.76263104174865 y_0!4_2!2 +19.486258221027185 y_0!1_2!3 +72.32216182998917 y_0!2_2!3 -99.24984588860679 y_0!3_2!3 +77.56755428733271 y_0!4_2!3 +97.25483561061466 y_0!1_2!4 -99.63324416489301 y_0!2_2!4 +11.02870202411222 y_0!3_2!4 -96.59141494083951 y_0!4_2!4 + lambda_1!1 - mu_1 = 0
 epc_1!2: -47.32641790628664 y_0!1_2!1 +18.463524946201474 y_0!2_2!1 +87.33565401944426 y_0!3_2!1 -30.246086172125317 y_0!4_2!1 -17.521462106003426 y_0!1_2!2 -14.325964643192961 y_0!2_2!2 -2.490049080790442 y_0!3_2!2 +23.16691810577298 y_0!4_2!2 +70.13387873774818 y_0!1_2!3 +6.75620490588247 y_0!2_2!3 +92.74994475346247 y_0!3_2!3 -46.61725863608355 y_0!4_2!3 -74.84014420777547 y_0!1_2!4 +31.528719211977858 y_0!2_2!4 -11.210539574608205 y_0!3_2!4 +41.2001359963115 y_0!4_2!4 + lambda_1!2 - mu_1 = 0
 epc_1!3: +44.06839538341109 y_0!1_2!1 +53.079507545178075 y_0!2_2!1 +87.47626189009537 y_0!3_2!1 +4.391173590137058 y_0!4_2!1 -17.251061925493488 y_0!1_2!2 +35.0345990522795 y_0!2_2!2 +9.523777808072282 y_0!3_2!2 -22.064426909552083 y_0!4_2!2 -49.067732487280665 y_0!1_2!3 -45.11754654445221 y_0!2_2!3 +80.5459602101918 y_0!3_2!3 -41.679972537556175 y_0!4_2!3 -48.8339566624832 y_0!1_2!4 +85.00474749708829 y_0!2_2!4 +92.05150545801337 y_0!3_2!4 +9.908440927289604 y_0!4_2!4 + lambda_1!3 - mu_1 = 0
 epc_1!4: +0.8107377533061566 y_0!1_2!1 +75.05168556432383 y_0!2_2!1 +30.088638186319173 y_0!3_2!1 +36.87132290156404 y_0!4_2!1 +45.22741544750809 y_0!1_2!2 +85.96878895837176 y_0!2_2!2 -73.09585993257765 y_0!3_2!2 +96.62792582472497 y_0!4_2!2 +74.50797143154401 y_0!1_2!3 +35.94558770496323 y_0!2_2!3 -92.66434104901677 y_0!3_2!3 +75.36293727019913 y_0!4_2!3 -41.68080267369532 y_0!1_2!4 -86.99654586082471 y_0!2_2!4 -94.901429676797 y_0!3_2!4 +30.20149755014407 y_0!4_2!4 + lambda_1!4 - mu_1 = 0
 dc_1: x_1!1 + x_1!2 + x_1!3 + x_1!4 = 1
 bc_1!1: lambda_1!1 +296.88807977550766 x_1!1 <= 296.88807977550766
 bc_1!2: lambda_1!2 +296.88807977550766 x_1!2 <= 296.88807977550766
 bc_1!3: lambda_1!3 +296.88807977550766 x_1!3 <= 296.88807977550766
 bc_1!4: lambda_1!4 +296.88807977550766 x_1!4 <= 296.88807977550766
 sum_1!1: y_0!1_2!1 - x_0!1 - x_2!1 >= -1
 idk_1!1!0: y_0!1_2!1 - x_0!1 <= 0
 idk_1!1!2: y_0!1_2!1 - x_2!1 <= 0
 sum_1!2: y_0!2_2!1 - x_0!2 - x_2!1 >= -1
 idk_1!2!0: y_0!2_2!1 - x_0!2 <= 0
 idk_1!2!2: y_0!2_2!1 - x_2!1 <= 0
 sum_1!3: y_0!3_2!1 - x_0!3 - x_2!1 >= -1
 idk_1!3!0: y_0!3_2!1 - x_0!3 <= 0
 idk_1!3!2: y_0!3_2!1 - x_2!1 <= 0
 sum_1!4: y_0!4_2!1 - x_0!4 - x_2!1 >= -1
 idk_1!4!0: y_0!4_2!1 - x_0!4 <= 0
 idk_1!4!2: y_0!4_2!1 - x_2!1 <= 0
 sum_1!5: y_0!1_2!2 - x_0!1 - x_2!2 >= -1
 idk_1!5!0: y_0!1_2!2 - x_0!1 <= 0
 idk_1!5!2: y_0!1_2!2 - x_2!2 <= 0
 sum_1!6: y_0!2_2!2 - x_0!2 - x_2!2 >= -1
 idk_1!6!0: y_0!2_2!2 - x_0!2 <= 0
 idk_1!6!2: y_0!2_2!2 - x_2!2 <= 0
 sum_1!7: y_0!3_2!2 - x_0!3 - x_2!2 >= -1
 idk_1!7!0: y_0!3_2!2 - x_0!3 <= 0
 idk_1!7!2: y_0!3_2!2 - x_2!2 <= 0
 sum_1!8: y_0!4_2!2 - x_0!4 - x_2!2 >= -1
 idk_1!8!0: y_0!4_2!2 - x_0!4 <= 0
 idk_1!8!2: y_0!4_2!2 - x_2!2 <= 0
 sum_1!9: y_0!1_2!3 - x_0!1 - x_2!3 >= -1
 idk_1!9!0: y_0!1_2!3 - x_0!1 <= 0
 idk_1!9!2: y_0!1_2!3 - x_2!3 <= 0
 sum_1!10: y_0!2_2!3 - x_0!2 - x_2!3 >= -1
 idk_1!10!0: y_0!2_2!3 - x_0!2 <= 0
 idk_1!10!2: y_0!2_2!3 - x_2!3 <= 0
 sum_1!11: y_0!3_2!3 - x_0!3 - x_2!3 >= -1
 idk_1!11!0: y_0!3_2!3 - x_0!3 <= 0
 idk_1!11!2: y_0!3_2!3 - x_2!3 <= 0
 sum_1!12: y_0!4_2!3 - x_0!4 - x_2!3 >= -1
 idk_1!12!0: y_0!4_2!3 - x_0!4 <= 0
 idk_1!12!2: y_0!4_2!3 - x_2!3 <= 0
 sum_1!13: y_0!1_2!4 - x_0!1 - x_2!4 >= -1
 idk_1!13!0: y_0!1_2!4 - x_0!1 <= 0
 idk_1!13!2: y_0!1_2!4 - x_2!4 <= 0
 sum_1!14: y_0!2_2!4 - x_0!2 - x_2!4 >= -1
 idk_1!14!0: y_0!2_2!4 - x_0!2 <= 0
 idk_1!14!2: y_0!2_2!4 - x_2!4 <= 0
 sum_1!15: y_0!3_2!4 - x_0!3 - x_2!4 >= -1
 idk_1!15!0: y_0!3_2!4 - x_0!3 <= 0
 idk_1!15!2: y_0!3_2!4 - x_2!4 <= 0
 sum_1!16: y_0!4_2!4 - x_0!4 - x_2!4 >= -1
 idk_1!16!0: y_0!4_2!4 - x_0!4 <= 0
 idk_1!16!2: y_0!4_2!4 - x_2!4 <= 0
 epc_2!1: -62.61943190897634 y_0!1_1!1 -38.43333813402629 y_0!2_1!1 -58.06411500875217 y_0!3_1!1 +83.33343026583424 y_0!4_1!1 +17.392682102647598 y_0!1_1!2 -69.5270547436894 y_0!2_1!2 +61.86576796419985 y_0!3_1!2 +87.47284544371666 y_0!4_1!2 +93.60282389365463 y_0!1_1!3 -8.182879487253388 y_0!2_1!3 +7.519609733597292 y_0!3_1!3 -25.07271676578071 y_0!4_1!3 -22.10961723665133 y_0!1_1!4 +95.72192376264906 y_0!2_1!4 -84.72045781804796 y_0!3_1!4 +89.00003167754974 y_0!4_1!4 + lambda_2!1 - mu_2 = 0
 epc_2!2: +70.61601916989522 y_0!1_1!1 -60.04032705292164 y_0!2_1!1 +75.88226492081728 y_0!3_1!1 -22.018196543504757 y_0!4_1!1 -66.52640917199777 y_0!1_1!2 -42.464734806243065 y_0!2_1!2 -86.48656693276916 y_0!3_1!2 -28.736968575325477 y_0!4_1!2 -76.70652416886571 y_0!1_1!3 +88.93731788056189 y_0!2_1!3 -7.071955668906099 y_0!3_1!3 -85.65777900506018 y_0!4_1!3 +28.02658215283776 y_0!1_1!4 -62.0472586093267 y_0!2_1!4 -50.17000973158876 y_0!3_1!4 -16.401719531956033 y_0!4_1!4 + lambda_2!2 - mu_2 = 0
 epc_2!3: -53.666393044031494 y_0!1_1!1 +8.572806077099955 y_0!2_1!1 -50.685762222415185 y_0!3_1!1 -65.29741479858211 y_0!4_1!1 +21.149363748183077 y_0!1_1!2 -62.098391821953584 y_0!2_1!2 -44.504588974681724 y_0!3_1!2 -9.695707516250792 y_0!4_1!2 +75.28743322277705 y_0!1_1!3 -23.889390715436363 y_0!2_1!3 -57.48310729159307 y_0!3_1!3 +43.13027202556191 y_0!4_1!3 -96.40442049808209 y_0!1_1!4 +19.36577344998311 y_0!2_1!4 -7.045174242462608 y_0!3_1!4 -60.101170090356135 y_0!4_1!4 + lambda_2!3 - mu_2 = 0
 epc_2!4: -48.63220676761655 y_0!1_1!1 +75.28668064096732 y_0!2_1!1 +14.201712340119315 y_0!3_1!1 -80.5457825692585 y_0!4_1!1 -47.33597940345333 y_0!1_1!2 -67.12036259433856 y_0!2_1!2 -43.26529685679272 y_0!3_1!2 +5.286697708885413 y_0!4_1!2 +14.884074729539236 y_0!1_1!3 +20.019861224176267 y_0!2_1!3 -59.75615756894286 y_0!3_1!3 +98.11075785013506 y_0!4_1!3 +17.387459222677904 y_0!1_1!4 -38.559586217347764 y_0!2_1!4 -15.58400412525836 y_0!3_1!4 +78.43196831754472 y_0!4_1!4 + lambda_2!4 - mu_2 = 0
 dc_2: x_2!1 + x_2!2 + x_2!3 + x_2!4 = 1
 bc_2!1: lambda_2!1 +296.88807977550766 x_2!1 <= 296.88807977550766
 bc_2!2: lambda_2!2 +296.88807977550766 x_2!2 <= 296.88807977550766
 bc_2!3: lambda_2!3 +296.88807977550766 x_2!3 <= 296.88807977550766
 bc_2!4: lambda_2!4 +296.88807977550766 x_2!4 <= 296.88807977550766
 sum_2!1: y_0!1_1!1 - x_0!1 - x_1!1 >= -1
 idk_2!1!0: y_0!1_1!1 - x_0!1 <= 0
 idk_2!1!1: y_0!1_1!1 - x_1!1 <= 0
 sum_2!2: y_0!2_1!1 - x_0!2 - x_1!1 >= -1
 idk_2!2!0: y_0!2_1!1 - x_0!2 <= 0
 idk_2!2!1: y_0!2_1!1 - x_1!1 <= 0
 sum_2!3: y_0!3_1!1 - x_0!3 - x_1!1 >= -1
 idk_2!3!0: y_0!3_1!1 - x_0!3 <= 0
 idk_2!3!1: y_0!3_1!1 - x_1!1 <= 0
 sum_2!4: y_0!4_1!1 - x_0!4 - x_1!1 >= -1
 idk_2!4!0: y_0!4_1!1 - x_0!4 <= 0
 idk_2!4!1: y_0!4_1!1 - x_1!1 <= 0
 sum_2!5: y_0!1_1!2 - x_0!1 - x_1!2 >= -1
 idk_2!5!0: y_0!1_1!2 - x_0!1 <= 0
 idk_2!5!1: y_0!1_1!2 - x_1!2 <= 0
 sum_2!6: y_0!2_1!2 - x_0!2 - x_1!2 >= -1
 idk_2!6!0: y_0!2_1!2 - x_0!2 <= 0
 idk_2!6!1: y_0!2_1!2 - x_1!2 <= 0
 sum_2!7: y_0!3_1!2 - x_0!3 - x_1!2 >= -1
 idk_2!7!0: y_0!3_1!2 - x_0!3 <= 0
 idk_2!7!1: y_0!3_1!2 - x_1!2 <= 0
 sum_2!8: y_0!4_1!2 - x_0!4 - x_1!2 >= -1
 idk_2!8!0: y_0!4_1!2 - x_0!4 <= 0
 idk_2!8!1: y_0!4_1!2 - x_1!2 <= 0
 sum_2!9: y_0!1_1!3 - x_0!1 - x_1!3 >= -1
 idk_2!9!0: y_0!1_1!3 - x_0!1 <= 0
 idk_2!9!1: y_0!1_1!3 - x_1!3 <= 0
 sum_2!10: y_0!2_1!3 - x_0!2 - x_1!3 >= -1
 idk_2!10!0: y_0!2_1!3 - x_0!2 <= 0
 idk_2!10!1: y_0!2_1!3 - x_1!3 <= 0
 sum_2!11: y_0!3_1!3 - x_0!3 - x_1!3 >= -1
 idk_2!11!0: y_0!3_1!3 - x_0!3 <= 0
 idk_2!11!1: y_0!3_1!3 - x_1!3 <= 0
 sum_2!12: y_0!4_1!3 - x_0!4 - x_1!3 >= -1
 idk_2!12!0: y_0!4_1!3 - x_0!4 <= 0
 idk_2!12!1: y_0!4_1!3 - x_1!3 <= 0
 sum_2!13: y_0!1_1!4 - x_0!1 - x_1!4 >= -1
 idk_2!13!0: y_0!1_1!4 - x_0!1 <= 0
 idk_2!13!1: y_0!1_1!4 - x_1!4 <= 0
 sum_2!14: y_0!2_1!4 - x_0!2 - x_1!4 >= -1
 idk_2!14!0: y_0!2_1!4 - x_0!2 <= 0
 idk_2!14!1: y_0!2_1!4 - x_1!4 <= 0
 sum_2!15: y_0!3_1!4 - x_0!3 - x_1!4 >= -1
 idk_2!15!0: y_0!3_1!4 - x_0!3 <= 0
 idk_2!15!1: y_0!3_1!4 - x_1!4 <= 0
 sum_2!16: y_0!4_1!4 - x_0!4 - x_1!4 >= -1
 idk_2!16!0: y_0!4_1!4 - x_0!4 <= 0
 idk_2!16!1: y_0!4_1!4 - x_1!4 <= 0
Bounds
 mu_0 free
 mu_1 free
 mu_2 free
Binary
 x_0!1 x_0!2 x_0!3 x_0!4 x_1!1 x_1!2 x_1!3 x_1!4 x_2!1 x_2!2 x_2!3 x_2!4
End
